============================[ Problem Statistics ]=============================|                                                                             ||  Number of variables:          4242                                         ||  Number of clauses:           10155                                         ||  Parse time:                   0.54 s                                       ||                                                                             |============================[ Search Statistics ]==============================| Conflicts |          ORIGINAL         |          LEARNT          | Progress ||           |    Vars  Clauses Literals |    Limit  Clauses Lit/Cl |          |===============================================================================|       100 |    1591     6360   866161 |     2332      100     53 | 62.501 % ||       250 |    1591     6360   866161 |     2565      250     75 | 62.495 % |===============================================================================restarts              : 3conflicts             : 302            (367 /sec)decisions             : 569            (0.00 % random) (691 /sec)propagations          : 11858          (14408 /sec)conflict literals     : 23850          (94.73 % deleted)CPU time              : 0.823 sSATISFIABLE